\ Model knapsack_60_1_4
\ LP format - for model browsing. Use MPS format to capture full model detail.
\ Signature: 0x5769b1bf76eb5de0
Minimize
  15.86 x[0] + 25.05 x[1] + 197.58 x[2] + 14.05 x[3] + 33.06 x[4]
   + 172.33 x[5] + 59.39 x[6] + 110.99 x[7] + 53.6 x[8] + 37.72 x[9]
   + 111.46 x[10] + 117.64 x[11] + 163.83 x[12] + 81.29 x[13]
   + 113.38 x[14] + 114.88 x[15] + 71.64 x[16] + 38.31 x[17] + 54.48 x[18]
   + 64.88 x[19] + 50.82 x[20] + 66.25 x[21] + 55.62 x[22] + 33.4 x[23]
   + 66.89 x[24] + 93.07 x[25] + 59.21 x[26] + 138.4 x[27] + 79.76 x[28]
   + 134.5 x[29] + 94.78 x[30] + 83.06 x[31] + 75.51 x[32] + 97.01 x[33]
   + 38.49 x[34] + 111.84 x[35] + 45.56 x[36] + 29.2 x[37] + 73.97 x[38]
   + 106.79 x[39] + 17.42 x[40] + 77.65 x[41] + 124.06 x[42] + 124.01 x[43]
   + 65.83 x[44] + 78.93 x[45] + 131.08 x[46] + 141.19 x[47] + 54.78 x[48]
   + 64.8 x[49] + 42.47 x[50] + 69.04 x[51] + 158.3 x[52] + 76.01 x[53]
   + 37.37 x[54] + 180.78 x[55] + 37.47 x[56] + 75.29 x[57] + 159.35 x[58]
   + 78.77 x[59] - 156 y[0] - 129 y[1] - 1085 y[2] - 133 y[3] - 183 y[4]
   - 955 y[5] - 500 y[6] - 563 y[7] - 393 y[8] - 260 y[9] - 674 y[10]
   - 696 y[11] - 938 y[12] - 636 y[13] - 764 y[14] - 1010 y[15] - 562 y[16]
   - 257 y[17] - 507 y[18] - 481 y[19] - 280 y[20] - 562 y[21] - 388 y[22]
   - 322 y[23] - 385 y[24] - 846 y[25] - 501 y[26] - 793 y[27] - 553 y[28]
   - 866 y[29] - 589 y[30] - 555 y[31] - 530 y[32] - 841 y[33] - 337 y[34]
   - 929 y[35] - 366 y[36] - 221 y[37] - 391 y[38] - 880 y[39] - 154 y[40]
   - 612 y[41] - 1096 y[42] - 678 y[43] - 337 y[44] - 447 y[45] - 671 y[46]
   - 911 y[47] - 377 y[48] - 468 y[49] - 257 y[50] - 557 y[51] - 1039 y[52]
   - 547 y[53] - 224 y[54] - 966 y[55] - 226 y[56] - 661 y[57] - 1000 y[58]
   - 455 y[59]
Subject To
 primal_upper: 56 y[0] + 29 y[1] + 985 y[2] + 33 y[3] + 83 y[4] + 855 y[5]
   + 400 y[6] + 463 y[7] + 293 y[8] + 160 y[9] + 574 y[10] + 596 y[11]
   + 838 y[12] + 536 y[13] + 664 y[14] + 910 y[15] + 462 y[16] + 157 y[17]
   + 407 y[18] + 381 y[19] + 180 y[20] + 462 y[21] + 288 y[22] + 222 y[23]
   + 285 y[24] + 746 y[25] + 401 y[26] + 693 y[27] + 453 y[28] + 766 y[29]
   + 489 y[30] + 455 y[31] + 430 y[32] + 741 y[33] + 237 y[34] + 829 y[35]
   + 266 y[36] + 121 y[37] + 291 y[38] + 780 y[39] + 54 y[40] + 512 y[41]
   + 996 y[42] + 578 y[43] + 237 y[44] + 347 y[45] + 571 y[46] + 811 y[47]
   + 277 y[48] + 368 y[49] + 157 y[50] + 457 y[51] + 939 y[52] + 447 y[53]
   + 124 y[54] + 866 y[55] + 126 y[56] + 561 y[57] + 900 y[58] + 355 y[59]
   + 6 z[0] + 3 z[1] + 98 z[2] + 3 z[3] + 8 z[4] + 86 z[5] + 40 z[6]
   + 46 z[7] + 29 z[8] + 16 z[9] + 57 z[10] + 60 z[11] + 84 z[12]
   + 54 z[13] + 66 z[14] + 91 z[15] + 46 z[16] + 16 z[17] + 41 z[18]
   + 38 z[19] + 18 z[20] + 46 z[21] + 29 z[22] + 22 z[23] + 28 z[24]
   + 75 z[25] + 40 z[26] + 69 z[27] + 45 z[28] + 77 z[29] + 49 z[30]
   + 46 z[31] + 43 z[32] + 74 z[33] + 24 z[34] + 83 z[35] + 27 z[36]
   + 12 z[37] + 29 z[38] + 78 z[39] + 5 z[40] + 51 z[41] + 100 z[42]
   + 58 z[43] + 24 z[44] + 35 z[45] + 57 z[46] + 81 z[47] + 28 z[48]
   + 37 z[49] + 16 z[50] + 46 z[51] + 94 z[52] + 45 z[53] + 12 z[54]
   + 87 z[55] + 13 z[56] + 56 z[57] + 90 z[58] + 36 z[59] <= 5540
 primal_lower0: 640 u[0] + 469 u[1] + 785 u[2] + 905 u[3] + 35 u[4]
   + 319 u[5] + 880 u[6] + 79 u[7] + 69 u[8] + 48 u[9] + 206 u[10]
   + 668 u[11] + 134 u[12] + 296 u[13] + 392 u[14] + 694 u[15] + 686 u[16]
   + 29 u[17] + 215 u[18] + 997 u[19] + 140 u[20] + 838 u[21] + 584 u[22]
   + 518 u[23] + 805 u[24] + 178 u[25] + 73 u[26] + 701 u[27] + 485 u[28]
   + 278 u[29] + 41 u[30] + 367 u[31] + 574 u[32] + 317 u[33] + 781 u[34]
   + 901 u[35] + 434 u[36] + 25 u[37] + 387 u[38] + 348 u[39] + 70 u[40]
   + 696 u[41] + 108 u[42] + 602 u[43] + 389 u[44] + 411 u[45] + 811 u[46]
   + 955 u[47] + 477 u[48] + 104 u[49] + 453 u[50] + 585 u[51] + 91 u[52]
   + 623 u[53] + 508 u[54] + 2 u[55] + 926 u[56] + 209 u[57] + 900 u[58]
   + 131 u[59] <= 15823
 interdiction[0]: x[0] + u[0] <= 1
 interdiction[1]: x[1] + u[1] <= 1
 interdiction[2]: x[2] + u[2] <= 1
 interdiction[3]: x[3] + u[3] <= 1
 interdiction[4]: x[4] + u[4] <= 1
 interdiction[5]: x[5] + u[5] <= 1
 interdiction[6]: x[6] + u[6] <= 1
 interdiction[7]: x[7] + u[7] <= 1
 interdiction[8]: x[8] + u[8] <= 1
 interdiction[9]: x[9] + u[9] <= 1
 interdiction[10]: x[10] + u[10] <= 1
 interdiction[11]: x[11] + u[11] <= 1
 interdiction[12]: x[12] + u[12] <= 1
 interdiction[13]: x[13] + u[13] <= 1
 interdiction[14]: x[14] + u[14] <= 1
 interdiction[15]: x[15] + u[15] <= 1
 interdiction[16]: x[16] + u[16] <= 1
 interdiction[17]: x[17] + u[17] <= 1
 interdiction[18]: x[18] + u[18] <= 1
 interdiction[19]: x[19] + u[19] <= 1
 interdiction[20]: x[20] + u[20] <= 1
 interdiction[21]: x[21] + u[21] <= 1
 interdiction[22]: x[22] + u[22] <= 1
 interdiction[23]: x[23] + u[23] <= 1
 interdiction[24]: x[24] + u[24] <= 1
 interdiction[25]: x[25] + u[25] <= 1
 interdiction[26]: x[26] + u[26] <= 1
 interdiction[27]: x[27] + u[27] <= 1
 interdiction[28]: x[28] + u[28] <= 1
 interdiction[29]: x[29] + u[29] <= 1
 interdiction[30]: x[30] + u[30] <= 1
 interdiction[31]: x[31] + u[31] <= 1
 interdiction[32]: x[32] + u[32] <= 1
 interdiction[33]: x[33] + u[33] <= 1
 interdiction[34]: x[34] + u[34] <= 1
 interdiction[35]: x[35] + u[35] <= 1
 interdiction[36]: x[36] + u[36] <= 1
 interdiction[37]: x[37] + u[37] <= 1
 interdiction[38]: x[38] + u[38] <= 1
 interdiction[39]: x[39] + u[39] <= 1
 interdiction[40]: x[40] + u[40] <= 1
 interdiction[41]: x[41] + u[41] <= 1
 interdiction[42]: x[42] + u[42] <= 1
 interdiction[43]: x[43] + u[43] <= 1
 interdiction[44]: x[44] + u[44] <= 1
 interdiction[45]: x[45] + u[45] <= 1
 interdiction[46]: x[46] + u[46] <= 1
 interdiction[47]: x[47] + u[47] <= 1
 interdiction[48]: x[48] + u[48] <= 1
 interdiction[49]: x[49] + u[49] <= 1
 interdiction[50]: x[50] + u[50] <= 1
 interdiction[51]: x[51] + u[51] <= 1
 interdiction[52]: x[52] + u[52] <= 1
 interdiction[53]: x[53] + u[53] <= 1
 interdiction[54]: x[54] + u[54] <= 1
 interdiction[55]: x[55] + u[55] <= 1
 interdiction[56]: x[56] + u[56] <= 1
 interdiction[57]: x[57] + u[57] <= 1
 interdiction[58]: x[58] + u[58] <= 1
 interdiction[59]: x[59] + u[59] <= 1
 mccormick1[0]: - u[0] + z[0] <= 0
 mccormick1[1]: - u[1] + z[1] <= 0
 mccormick1[2]: - u[2] + z[2] <= 0
 mccormick1[3]: - u[3] + z[3] <= 0
 mccormick1[4]: - u[4] + z[4] <= 0
 mccormick1[5]: - u[5] + z[5] <= 0
 mccormick1[6]: - u[6] + z[6] <= 0
 mccormick1[7]: - u[7] + z[7] <= 0
 mccormick1[8]: - u[8] + z[8] <= 0
 mccormick1[9]: - u[9] + z[9] <= 0
 mccormick1[10]: - u[10] + z[10] <= 0
 mccormick1[11]: - u[11] + z[11] <= 0
 mccormick1[12]: - u[12] + z[12] <= 0
 mccormick1[13]: - u[13] + z[13] <= 0
 mccormick1[14]: - u[14] + z[14] <= 0
 mccormick1[15]: - u[15] + z[15] <= 0
 mccormick1[16]: - u[16] + z[16] <= 0
 mccormick1[17]: - u[17] + z[17] <= 0
 mccormick1[18]: - u[18] + z[18] <= 0
 mccormick1[19]: - u[19] + z[19] <= 0
 mccormick1[20]: - u[20] + z[20] <= 0
 mccormick1[21]: - u[21] + z[21] <= 0
 mccormick1[22]: - u[22] + z[22] <= 0
 mccormick1[23]: - u[23] + z[23] <= 0
 mccormick1[24]: - u[24] + z[24] <= 0
 mccormick1[25]: - u[25] + z[25] <= 0
 mccormick1[26]: - u[26] + z[26] <= 0
 mccormick1[27]: - u[27] + z[27] <= 0
 mccormick1[28]: - u[28] + z[28] <= 0
 mccormick1[29]: - u[29] + z[29] <= 0
 mccormick1[30]: - u[30] + z[30] <= 0
 mccormick1[31]: - u[31] + z[31] <= 0
 mccormick1[32]: - u[32] + z[32] <= 0
 mccormick1[33]: - u[33] + z[33] <= 0
 mccormick1[34]: - u[34] + z[34] <= 0
 mccormick1[35]: - u[35] + z[35] <= 0
 mccormick1[36]: - u[36] + z[36] <= 0
 mccormick1[37]: - u[37] + z[37] <= 0
 mccormick1[38]: - u[38] + z[38] <= 0
 mccormick1[39]: - u[39] + z[39] <= 0
 mccormick1[40]: - u[40] + z[40] <= 0
 mccormick1[41]: - u[41] + z[41] <= 0
 mccormick1[42]: - u[42] + z[42] <= 0
 mccormick1[43]: - u[43] + z[43] <= 0
 mccormick1[44]: - u[44] + z[44] <= 0
 mccormick1[45]: - u[45] + z[45] <= 0
 mccormick1[46]: - u[46] + z[46] <= 0
 mccormick1[47]: - u[47] + z[47] <= 0
 mccormick1[48]: - u[48] + z[48] <= 0
 mccormick1[49]: - u[49] + z[49] <= 0
 mccormick1[50]: - u[50] + z[50] <= 0
 mccormick1[51]: - u[51] + z[51] <= 0
 mccormick1[52]: - u[52] + z[52] <= 0
 mccormick1[53]: - u[53] + z[53] <= 0
 mccormick1[54]: - u[54] + z[54] <= 0
 mccormick1[55]: - u[55] + z[55] <= 0
 mccormick1[56]: - u[56] + z[56] <= 0
 mccormick1[57]: - u[57] + z[57] <= 0
 mccormick1[58]: - u[58] + z[58] <= 0
 mccormick1[59]: - u[59] + z[59] <= 0
 mccormick2[0]: - y[0] + z[0] <= 0
 mccormick2[1]: - y[1] + z[1] <= 0
 mccormick2[2]: - y[2] + z[2] <= 0
 mccormick2[3]: - y[3] + z[3] <= 0
 mccormick2[4]: - y[4] + z[4] <= 0
 mccormick2[5]: - y[5] + z[5] <= 0
 mccormick2[6]: - y[6] + z[6] <= 0
 mccormick2[7]: - y[7] + z[7] <= 0
 mccormick2[8]: - y[8] + z[8] <= 0
 mccormick2[9]: - y[9] + z[9] <= 0
 mccormick2[10]: - y[10] + z[10] <= 0
 mccormick2[11]: - y[11] + z[11] <= 0
 mccormick2[12]: - y[12] + z[12] <= 0
 mccormick2[13]: - y[13] + z[13] <= 0
 mccormick2[14]: - y[14] + z[14] <= 0
 mccormick2[15]: - y[15] + z[15] <= 0
 mccormick2[16]: - y[16] + z[16] <= 0
 mccormick2[17]: - y[17] + z[17] <= 0
 mccormick2[18]: - y[18] + z[18] <= 0
 mccormick2[19]: - y[19] + z[19] <= 0
 mccormick2[20]: - y[20] + z[20] <= 0
 mccormick2[21]: - y[21] + z[21] <= 0
 mccormick2[22]: - y[22] + z[22] <= 0
 mccormick2[23]: - y[23] + z[23] <= 0
 mccormick2[24]: - y[24] + z[24] <= 0
 mccormick2[25]: - y[25] + z[25] <= 0
 mccormick2[26]: - y[26] + z[26] <= 0
 mccormick2[27]: - y[27] + z[27] <= 0
 mccormick2[28]: - y[28] + z[28] <= 0
 mccormick2[29]: - y[29] + z[29] <= 0
 mccormick2[30]: - y[30] + z[30] <= 0
 mccormick2[31]: - y[31] + z[31] <= 0
 mccormick2[32]: - y[32] + z[32] <= 0
 mccormick2[33]: - y[33] + z[33] <= 0
 mccormick2[34]: - y[34] + z[34] <= 0
 mccormick2[35]: - y[35] + z[35] <= 0
 mccormick2[36]: - y[36] + z[36] <= 0
 mccormick2[37]: - y[37] + z[37] <= 0
 mccormick2[38]: - y[38] + z[38] <= 0
 mccormick2[39]: - y[39] + z[39] <= 0
 mccormick2[40]: - y[40] + z[40] <= 0
 mccormick2[41]: - y[41] + z[41] <= 0
 mccormick2[42]: - y[42] + z[42] <= 0
 mccormick2[43]: - y[43] + z[43] <= 0
 mccormick2[44]: - y[44] + z[44] <= 0
 mccormick2[45]: - y[45] + z[45] <= 0
 mccormick2[46]: - y[46] + z[46] <= 0
 mccormick2[47]: - y[47] + z[47] <= 0
 mccormick2[48]: - y[48] + z[48] <= 0
 mccormick2[49]: - y[49] + z[49] <= 0
 mccormick2[50]: - y[50] + z[50] <= 0
 mccormick2[51]: - y[51] + z[51] <= 0
 mccormick2[52]: - y[52] + z[52] <= 0
 mccormick2[53]: - y[53] + z[53] <= 0
 mccormick2[54]: - y[54] + z[54] <= 0
 mccormick2[55]: - y[55] + z[55] <= 0
 mccormick2[56]: - y[56] + z[56] <= 0
 mccormick2[57]: - y[57] + z[57] <= 0
 mccormick2[58]: - y[58] + z[58] <= 0
 mccormick2[59]: - y[59] + z[59] <= 0
 mccormick3[0]: y[0] + u[0] - z[0] <= 1
 mccormick3[1]: y[1] + u[1] - z[1] <= 1
 mccormick3[2]: y[2] + u[2] - z[2] <= 1
 mccormick3[3]: y[3] + u[3] - z[3] <= 1
 mccormick3[4]: y[4] + u[4] - z[4] <= 1
 mccormick3[5]: y[5] + u[5] - z[5] <= 1
 mccormick3[6]: y[6] + u[6] - z[6] <= 1
 mccormick3[7]: y[7] + u[7] - z[7] <= 1
 mccormick3[8]: y[8] + u[8] - z[8] <= 1
 mccormick3[9]: y[9] + u[9] - z[9] <= 1
 mccormick3[10]: y[10] + u[10] - z[10] <= 1
 mccormick3[11]: y[11] + u[11] - z[11] <= 1
 mccormick3[12]: y[12] + u[12] - z[12] <= 1
 mccormick3[13]: y[13] + u[13] - z[13] <= 1
 mccormick3[14]: y[14] + u[14] - z[14] <= 1
 mccormick3[15]: y[15] + u[15] - z[15] <= 1
 mccormick3[16]: y[16] + u[16] - z[16] <= 1
 mccormick3[17]: y[17] + u[17] - z[17] <= 1
 mccormick3[18]: y[18] + u[18] - z[18] <= 1
 mccormick3[19]: y[19] + u[19] - z[19] <= 1
 mccormick3[20]: y[20] + u[20] - z[20] <= 1
 mccormick3[21]: y[21] + u[21] - z[21] <= 1
 mccormick3[22]: y[22] + u[22] - z[22] <= 1
 mccormick3[23]: y[23] + u[23] - z[23] <= 1
 mccormick3[24]: y[24] + u[24] - z[24] <= 1
 mccormick3[25]: y[25] + u[25] - z[25] <= 1
 mccormick3[26]: y[26] + u[26] - z[26] <= 1
 mccormick3[27]: y[27] + u[27] - z[27] <= 1
 mccormick3[28]: y[28] + u[28] - z[28] <= 1
 mccormick3[29]: y[29] + u[29] - z[29] <= 1
 mccormick3[30]: y[30] + u[30] - z[30] <= 1
 mccormick3[31]: y[31] + u[31] - z[31] <= 1
 mccormick3[32]: y[32] + u[32] - z[32] <= 1
 mccormick3[33]: y[33] + u[33] - z[33] <= 1
 mccormick3[34]: y[34] + u[34] - z[34] <= 1
 mccormick3[35]: y[35] + u[35] - z[35] <= 1
 mccormick3[36]: y[36] + u[36] - z[36] <= 1
 mccormick3[37]: y[37] + u[37] - z[37] <= 1
 mccormick3[38]: y[38] + u[38] - z[38] <= 1
 mccormick3[39]: y[39] + u[39] - z[39] <= 1
 mccormick3[40]: y[40] + u[40] - z[40] <= 1
 mccormick3[41]: y[41] + u[41] - z[41] <= 1
 mccormick3[42]: y[42] + u[42] - z[42] <= 1
 mccormick3[43]: y[43] + u[43] - z[43] <= 1
 mccormick3[44]: y[44] + u[44] - z[44] <= 1
 mccormick3[45]: y[45] + u[45] - z[45] <= 1
 mccormick3[46]: y[46] + u[46] - z[46] <= 1
 mccormick3[47]: y[47] + u[47] - z[47] <= 1
 mccormick3[48]: y[48] + u[48] - z[48] <= 1
 mccormick3[49]: y[49] + u[49] - z[49] <= 1
 mccormick3[50]: y[50] + u[50] - z[50] <= 1
 mccormick3[51]: y[51] + u[51] - z[51] <= 1
 mccormick3[52]: y[52] + u[52] - z[52] <= 1
 mccormick3[53]: y[53] + u[53] - z[53] <= 1
 mccormick3[54]: y[54] + u[54] - z[54] <= 1
 mccormick3[55]: y[55] + u[55] - z[55] <= 1
 mccormick3[56]: y[56] + u[56] - z[56] <= 1
 mccormick3[57]: y[57] + u[57] - z[57] <= 1
 mccormick3[58]: y[58] + u[58] - z[58] <= 1
 mccormick3[59]: y[59] + u[59] - z[59] <= 1
Bounds
Binaries
 x[0] x[1] x[2] x[3] x[4] x[5] x[6] x[7] x[8] x[9] x[10] x[11] x[12] x[13]
 x[14] x[15] x[16] x[17] x[18] x[19] x[20] x[21] x[22] x[23] x[24] x[25]
 x[26] x[27] x[28] x[29] x[30] x[31] x[32] x[33] x[34] x[35] x[36] x[37]
 x[38] x[39] x[40] x[41] x[42] x[43] x[44] x[45] x[46] x[47] x[48] x[49]
 x[50] x[51] x[52] x[53] x[54] x[55] x[56] x[57] x[58] x[59] y[0] y[1] y[2]
 y[3] y[4] y[5] y[6] y[7] y[8] y[9] y[10] y[11] y[12] y[13] y[14] y[15]
 y[16] y[17] y[18] y[19] y[20] y[21] y[22] y[23] y[24] y[25] y[26] y[27]
 y[28] y[29] y[30] y[31] y[32] y[33] y[34] y[35] y[36] y[37] y[38] y[39]
 y[40] y[41] y[42] y[43] y[44] y[45] y[46] y[47] y[48] y[49] y[50] y[51]
 y[52] y[53] y[54] y[55] y[56] y[57] y[58] y[59] u[0] u[1] u[2] u[3] u[4]
 u[5] u[6] u[7] u[8] u[9] u[10] u[11] u[12] u[13] u[14] u[15] u[16] u[17]
 u[18] u[19] u[20] u[21] u[22] u[23] u[24] u[25] u[26] u[27] u[28] u[29]
 u[30] u[31] u[32] u[33] u[34] u[35] u[36] u[37] u[38] u[39] u[40] u[41]
 u[42] u[43] u[44] u[45] u[46] u[47] u[48] u[49] u[50] u[51] u[52] u[53]
 u[54] u[55] u[56] u[57] u[58] u[59] z[0] z[1] z[2] z[3] z[4] z[5] z[6]
 z[7] z[8] z[9] z[10] z[11] z[12] z[13] z[14] z[15] z[16] z[17] z[18] z[19]
 z[20] z[21] z[22] z[23] z[24] z[25] z[26] z[27] z[28] z[29] z[30] z[31]
 z[32] z[33] z[34] z[35] z[36] z[37] z[38] z[39] z[40] z[41] z[42] z[43]
 z[44] z[45] z[46] z[47] z[48] z[49] z[50] z[51] z[52] z[53] z[54] z[55]
 z[56] z[57] z[58] z[59]
End
